c description: Random 3-CNF over 19 variables and 81 clauses
c generator: CNFgen (0.9.2)
c copyright: (C) 2012-2022 Massimo Lauria <massimo.lauria@uniroma1.it>
c url: https://massimolauria.net/cnfgen
c command line: cnfgen --output CNF_4.28/19_bit_81_513.cnf randkcnf 3 19 81
c
p cnf 19 81
-1 3 6 0
8 15 -17 0
7 -15 17 0
-5 -12 17 0
-1 -3 17 0
3 -4 -12 0
2 -5 -19 0
-10 11 16 0
11 16 -18 0
6 7 -17 0
6 -8 19 0
6 -8 9 0
-4 7 9 0
8 -15 -19 0
4 7 -16 0
2 11 -16 0
5 -11 19 0
2 4 -19 0
-11 -18 -19 0
2 -7 -18 0
2 -6 -13 0
-3 17 -19 0
3 -11 13 0
1 3 -7 0
-3 -10 -18 0
3 -5 -10 0
11 14 -19 0
2 7 -15 0
-7 10 13 0
-2 -5 -18 0
-4 -9 -15 0
4 -13 19 0
-1 3 -10 0
3 -7 11 0
11 -15 16 0
4 -5 -18 0
3 6 -11 0
2 3 19 0
2 -4 11 0
-1 9 17 0
8 -9 16 0
-2 -3 17 0
6 12 -14 0
-1 15 16 0
1 2 13 0
3 -14 -18 0
-5 -11 -15 0
-4 17 19 0
6 7 11 0
7 11 16 0
-5 -8 15 0
-5 9 14 0
-15 -18 19 0
7 -9 -17 0
-3 13 18 0
1 11 -15 0
2 4 -5 0
-1 -15 -18 0
-2 17 19 0
8 9 19 0
6 13 -16 0
-8 11 -14 0
-8 -9 17 0
-5 14 -16 0
5 -6 -15 0
-5 -8 13 0
-10 -13 19 0
3 -10 14 0
-1 -6 11 0
7 -13 -19 0
14 -15 16 0
4 -13 17 0
5 -11 -18 0
-3 11 -19 0
5 -14 -18 0
4 -6 -12 0
4 -15 17 0
-2 -6 15 0
6 9 -14 0
9 15 16 0
1 -5 -11 0
